log             ../output/111/NPT_solid_mp.log

units           metal
atom_style      atomic

# create system and define regions and groups
include         lmp_infiles/111/build_system_bcc.in

# potential
include         potential.in

write_data      start.data

neigh_modify    delay 0 check yes

# Time step
timestep        0.0015

# Set velocities
velocity        all create 1942.6 5812775 dist gaussian

# NPT equilibration for about 50 ps
variable        nsteps equal round(50/dt)

fix             npt all npt temp 1942.6 1942.6 0.1 aniso 0.0 0.0 2.0

run             ${nsteps}

# NPT production for about 300 ps
variable        nsteps equal round(300/dt)

variable        hperatom equal "enthalpy/count(all)"
compute         peperatom all pe/atom
compute         ecoh all reduce ave c_peperatom

thermo          25
thermo_style    custom time lx ly lz density c_ecoh v_hperatom pe temp press

restart         ${nsteps} ../output/111/NPT_solid_mp.restart &
                          ../output/111/NPT_solid_mp.restart

run             ${nsteps}

variable        natoms equal count(all)
print           "${natoms}" file ../output/111/natoms_solid.dat
