units           metal
atom_style      atomic

# bcc lattice
lattice         [LATTICE_TYPE] [LATPARAM] origin 0.25 0.25 0.25 &
                                          orient [ORIENTATION]
region          box block 0 10 0 10 0 10
create_box      1 box
create_atoms    1 box

write_dump       all atom [TRAJ]
