log             ../output/[ORIENTATION]/NPT_solid_mp.log

units           metal
atom_style      atomic

# create system and define regions and groups
include         lmp_infiles/[ORIENTATION]/build_system_[LATTICE_TYPE].in

# potential
include         potential.in

write_data      start.data

neigh_modify    delay 0 check yes

# Time step
timestep        [TIMESTEP]

# Set velocities
velocity        all create [TEMP] 5812775 dist gaussian

# NPT equilibration for about 50 ps
variable        nsteps equal round(50/dt)

fix             npt all npt temp [TEMP] [TEMP] 0.1 aniso 0.0 0.0 2.0

run             ${nsteps}

# NPT production for about 300 ps
variable        nsteps equal round(300/dt)

variable        hperatom equal "enthalpy/count(all)"
compute         peperatom all pe/atom
compute         ecoh all reduce ave c_peperatom

thermo          25
thermo_style    custom time lx ly lz density c_ecoh v_hperatom pe temp press

restart         ${nsteps} ../output/[ORIENTATION]/NPT_solid_mp.restart &
                          ../output/[ORIENTATION]/NPT_solid_mp.restart

run             ${nsteps}

variable        natoms equal count(all)
print           "${natoms}" file ../output/[ORIENTATION]/natoms_solid.dat
