log             ../output/NPT_small/[TEMP]K/liquid.log

units           metal
atom_style      atomic

# fcc lattice
lattice         bcc [LATPARAM] origin 0.25 0.25 0.25
region          box block 0 13 0 13 0 13
create_box      1 box
create_atoms    1 box

# potential
include         potential.in

neigh_modify    delay 0 check yes

# Time step
timestep        [TIMESTEP]

# Melt for about 50 ps
variable        nsteps equal round(50/dt)

velocity        all create [TMELT] 5812775 dist gaussian

fix             npt all npt temp [TMELT] [TMELT] 0.1 iso 0.0 0.0 2.0

run             ${nsteps}

# Equilibrate for about 50 ps
variable        nsteps equal round(50/dt)

velocity        all scale [TEMP]

unfix           npt
fix             npt all npt temp [TEMP] [TEMP] 0.1 iso 0.0 0.0 2.0

run             ${nsteps}

# Production for about 300 ps
variable        nsteps equal round(300/dt)

variable        hperatom equal "enthalpy/count(all)"

compute         peperatom all pe/atom
compute         ecoh all reduce ave c_peperatom

variable        vperatom equal "vol/count(all)"

compute         centro all centro/atom bcc
compute         centroavg all reduce ave c_centro

thermo          25
thermo_style    custom time density c_ecoh v_hperatom v_vperatom c_centroavg pe temp press

restart         ${nsteps} ../output/NPT_small/[TEMP]K/liquid.restart &
                          ../output/NPT_small/[TEMP]K/liquid.restart

#variable        nstepstraj equal round(3/dt)
#dump            solidify all atom ${nstepstraj} ../output/NPT_small/[TEMP]K/liquid.lammpstrj
#dump_modify     solidify image yes

run             ${nsteps}
